20J6M/DAT/20J6MUNL-8.dat
20 6
17.7672 17.7672
40.5375 40.5375
11.3208 11.3208
18.1119 18.1119
22.1915 22.1915
49.16 49.16
6.6139 6.6139
25.0767 25.0767
5.7194 5.7194
9.6549 9.6549
25.8016 25.8016
36.3992 36.3992
35.9819 35.9819
31.7306 31.7306
35.8387 35.8387
24.6073 24.6073
19.7735 19.7735
2.7395 2.7395
19.1874 19.1874
34.1364 34.1364
472.3499