20J6M/SOL/20J6MUNL-8.sol
solution status: optimal solution found
objective value:                     78.7249833333333
x#1#3                                               1 	(obj:0)
x#2#2                               0.827459348340014 	(obj:0)
x#2#6                               0.172540651659986 	(obj:0)
x#3#3                                               1 	(obj:0)
x#4#3                                               1 	(obj:0)
x#5#4                                               1 	(obj:0)
x#6#6                                               1 	(obj:0)
x#7#4                                               1 	(obj:0)
x#8#1                                               1 	(obj:0)
x#9#3                                               1 	(obj:0)
x#10#3                                              1 	(obj:0)
x#11#1                                              1 	(obj:0)
x#12#2                                              1 	(obj:0)
x#13#3                              0.372723045012446 	(obj:0)
x#13#6                              0.627276954987554 	(obj:0)
x#14#5                                              1 	(obj:0)
x#15#1                              0.396165783543116 	(obj:0)
x#15#2                              0.245060507217059 	(obj:0)
x#15#5                              0.358773709239826 	(obj:0)
x#16#1                              0.554657222314787 	(obj:0)
x#16#4                              0.445342777685213 	(obj:0)
x#17#4                                              1 	(obj:0)
x#18#3                                              1 	(obj:0)
x#19#4                                              1 	(obj:0)
x#20#5                                              1 	(obj:0)
z                                    78.7249833333333 	(obj:1)
